50
20246

44 739
166 436
605 569
28 211
580 980
112 49
260 878
134 298
765 666
266 986
359 14
90 224
232 351
412 971
114 931
302 429
159 881
863 244
310 621
185 14
969 221
925 394
743 781
125 209
189 563
274 364
961 405
789 960
230 2
742 266
726 895
396 413
257 738
210 485
987 844
833 20
377 774
537 651
888 917
443 804
63 704
842 323
328 824
720 264
667 568
818 730
341 243
805 81
5 857
95 893
